126
81
84
117
78
76
75
69
70
71
68
74
18
21
17
4
23
24
6
106
15
108
20
22
19
72
8
9
11
114
105
2
51
57
54
45
103
44
35
36
41
14
12
31
27
30
43
34
39
38
26
25
33
122
28
29
32
80
79
77
73
67
62
61
91
58
64
100
10
115
13
50
5
121
56
124
52
113
125
89
92
99
65
66
55
47
49
53
48
118
46
94
112
111
107
127
93
95
123
98
97
42
40
37
16
1
7
120
3
90
116
60
59
104
110
85
86
87
88
109
96
119
63
102
101
83
82
126
